200
200
160
160
160
159
157
157
156
156
156
155
155
154
153
153
153
153
152
152
152
151
151
147
147
146
145
144
143
142
142
139
139
138
138
138
137
136
135
135
135
135
133
133
128
128
127
126
126
126
126
125
124
124
124
123
123
123
123
123
123
122
122
120
119
119
119
118
118
118
115
113
112
110
110
110
110
108
107
105
104
103
101
99
99
99
99
98
98
97
96
96
95
95
94
94
94
93
92
91
90
89
89
88
88
87
87
86
86
86
85
85
85
84
84
83
83
82
80
79
79
77
75
75
75
74
74
73
72
72
71
70
70
69
69
69
66
62
60
60
59
58
58
58
58
56
55
55
55
55
54
52
51
48
47
47
46
45
45
44
44
44
43
42
41
41
40
40
39
38
38
38
38
37
37
37
36
36
36
35
34
34
33
33
33
33
30
29
29
29
29
28
27
27
26
26
25
23
22
22
21
20
